Rodando pra 1h

Optimize a model with 490087 rows, 734022 columns and 18081671 nonzeros
Coefficient statistics:
  Matrix range    [1e+00, 1e+04]
  Objective range [2e-01, 2e-01]
  Bounds range    [1e+00, 1e+04]
  RHS range       [1e+00, 1e+04]
Presolve removed 1 rows and 1 columns (presolve time = 6s) ...
Presolve removed 1 rows and 1 columns (presolve time = 15s) ...
Presolve removed 2 rows and 2 columns (presolve time = 22s) ...
Presolve removed 2 rows and 2 columns (presolve time = 30s) ...
Presolve removed 2 rows and 2 columns (presolve time = 37s) ...
Presolve removed 2 rows and 2 columns (presolve time = 41s) ...
Presolve removed 2 rows and 2 columns (presolve time = 48s) ...
Presolve removed 2 rows and 2 columns (presolve time = 51s) ...
Presolve removed 2 rows and 2 columns (presolve time = 58s) ...
Presolve removed 2 rows and 2 columns (presolve time = 61s) ...
Presolve removed 2 rows and 2 columns (presolve time = 66s) ...
Presolve removed 2 rows and 2 columns (presolve time = 71s) ...
Presolve removed 2 rows and 2 columns (presolve time = 76s) ...
Presolve removed 2 rows and 2 columns (presolve time = 81s) ...
Presolve removed 2 rows and 2 columns (presolve time = 86s) ...
Presolve removed 2 rows and 2 columns (presolve time = 92s) ...
Presolve removed 2 rows and 2 columns (presolve time = 96s) ...
Presolve removed 2 rows and 2 columns (presolve time = 101s) ...
Presolve removed 2 rows and 2 columns (presolve time = 106s) ...
Presolve removed 2 rows and 2 columns (presolve time = 110s) ...
Presolve removed 2 rows and 2 columns (presolve time = 115s) ...
Presolve removed 2 rows and 2 columns (presolve time = 122s) ...
Presolve removed 2 rows and 2 columns (presolve time = 127s) ...
Presolve removed 2 rows and 2 columns (presolve time = 131s) ...
Presolve removed 2 rows and 2 columns (presolve time = 136s) ...
Presolve removed 2 rows and 2 columns (presolve time = 141s) ...
Presolve removed 2 rows and 2 columns (presolve time = 146s) ...
Presolve removed 2 rows and 2 columns (presolve time = 150s) ...
Presolve removed 2 rows and 2 columns (presolve time = 160s) ...
Presolve removed 2 rows and 2 columns (presolve time = 183s) ...
Presolve removed 2 rows and 2 columns
Presolve time: 182.88s
Presolved: 490085 rows, 734020 columns, 18081659 nonzeros
Variable types: 489300 continuous, 244720 integer (244714 binary)
Optimize a model with 490085 rows, 734020 columns and 18081659 nonzeros
Coefficient statistics:
  Matrix range    [1e+00, 1e+04]
  Objective range [2e-01, 2e-01]
  Bounds range    [1e+00, 1e+04]
  RHS range       [1e+00, 2e+04]
Presolve removed 0 rows and 0 columns (presolve time = 6s) ...
Presolved: 490085 rows, 734020 columns, 18081659 nonzeros


Root simplex log...

Iteration    Objective       Primal Inf.    Dual Inf.      Time
       0    0.0000000e+00   2.110683e+03   0.000000e+00    226s
    1447    0.0000000e+00   0.000000e+00   0.000000e+00    227s

Root relaxation: objective 0.000000e+00, 1447 iterations, 11.42 seconds

    Nodes    |    Current Node    |     Objective Bounds      |     Work
 Expl Unexpl |  Obj  Depth IntInf | Incumbent    BestBd   Gap | It/Node Time

     0     0    0.00000    0  721          -    0.00000      -     - 3600s

Explored 0 nodes (163798 simplex iterations) in 3600.71 seconds
Thread count was 1 (of 4 available processors)

Time limit reached
Best objective -, best bound 0.000000000000e+00, gap -
Tempo: 3587.1 segundos

Error code = 10004
Var::get
